objective value:                                    0
lambda[0,14]*                                       4 	(obj:0)
lambda[1,15]*                                       2 	(obj:0)
lambda[1,18]*                                       3 	(obj:0)
lambda[1,22]*                                       5 	(obj:0)
lambda[0,31]*                                       1 	(obj:0)
lambda[0,33]*                                       2 	(obj:0)
lambda[0,34]*                                       3 	(obj:0)
